p cnf 240 1082
130 154 0
101 104 128 230 0
126 185 0
107 190 194 0
86 146 160 162 169 0
136 137 170 175 202 206 0
176 208 212 0
113 177 180 0
121 166 0
133 152 0
100 102 110 219 0
94 96 178 0
92 106 167 0
85 88 148 0
123 131 173 0
112 143 0
83 84 156 0
117 171 224 226 0
79 93 0
182 186 0
108 188 189 191 193 0
89 145 163 195 0
125 132 197 199 0
138 141 201 0
203 234 0
209 213 216 236 0
115 238 0
151 174 218 0
81 99 220 0
105 149 0
116 140 205 221 0
165 211 222 0
157 223 0
119 172 225 0
135 155 227 228 0
111 153 0
98 127 231 0
150 184 233 0
142 207 235 0
214 217 237 0
159 239 0
78 122 240 0
76 77 0
74 75 0
70 71 73 0
69 204 0
-92 -148 0
-72 -92 0
-92 -210 0
-72 -148 0
-148 -210 0
-72 -210 0
-134 -224 0
-93 -224 0
-188 -224 0
-93 -134 0
-134 -188 0
-93 -188 0
-234 -236 0
-179 -234 0
-120 -234 0
-179 -236 0
-120 -236 0
-120 -179 0
-67 -68 0
-68 -87 0
-68 -140 0
-67 -87 0
-67 -140 0
-87 -140 0
-92 -224 0
-92 -234 0
-68 -92 0
-224 -234 0
-68 -224 0
-68 -234 0
-134 -148 0
-148 -236 0
-67 -148 0
-134 -236 0
-67 -134 0
-67 -236 0
-72 -93 0
-72 -179 0
-72 -87 0
-93 -179 0
-87 -93 0
-87 -179 0
-188 -210 0
-120 -210 0
-140 -210 0
-120 -188 0
-140 -188 0
-120 -140 0
-104 -185 0
-104 -190 0
-104 -196 0
-104 -170 0
-185 -190 0
-185 -196 0
-170 -185 0
-190 -196 0
-170 -190 0
-170 -196 0
-166 -177 0
-65 -177 0
-110 -177 0
-96 -177 0
-65 -166 0
-110 -166 0
-96 -166 0
-65 -110 0
-65 -96 0
-96 -110 0
-158 -213 0
-64 -213 0
-62 -213 0
-213 -218 0
-64 -158 0
-62 -158 0
-158 -218 0
-62 -64 0
-64 -218 0
-62 -218 0
-142 -215 0
-142 -239 0
-142 -240 0
-60 -142 0
-215 -239 0
-215 -240 0
-60 -215 0
-239 -240 0
-60 -239 0
-60 -240 0
-80 -91 0
-80 -147 0
-73 -80 0
-80 -204 0
-91 -147 0
-73 -91 0
-91 -204 0
-73 -147 0
-147 -204 0
-73 -204 0
-104 -177 0
-104 -213 0
-104 -142 0
-80 -104 0
-177 -213 0
-142 -177 0
-80 -177 0
-142 -213 0
-80 -213 0
-80 -142 0
-166 -185 0
-158 -185 0
-185 -215 0
-91 -185 0
-158 -166 0
-166 -215 0
-91 -166 0
-158 -215 0
-91 -158 0
-91 -215 0
-65 -190 0
-64 -190 0
-190 -239 0
-147 -190 0
-64 -65 0
-65 -239 0
-65 -147 0
-64 -239 0
-64 -147 0
-147 -239 0
-110 -196 0
-62 -196 0
-196 -240 0
-73 -196 0
-62 -110 0
-110 -240 0
-73 -110 0
-62 -240 0
-62 -73 0
-73 -240 0
-96 -170 0
-170 -218 0
-60 -170 0
-170 -204 0
-96 -218 0
-60 -96 0
-96 -204 0
-60 -218 0
-204 -218 0
-60 -204 0
-154 -230 0
-154 -232 0
-146 -154 0
-124 -154 0
-230 -232 0
-146 -230 0
-124 -230 0
-146 -232 0
-124 -232 0
-124 -146 0
-58 -113 0
-57 -58 0
-58 -133 0
-58 -102 0
-57 -113 0
-113 -133 0
-102 -113 0
-57 -133 0
-57 -102 0
-102 -133 0
-56 -117 0
-55 -117 0
-117 -189 0
-117 -195 0
-55 -56 0
-56 -189 0
-56 -195 0
-55 -189 0
-55 -195 0
-189 -195 0
-53 -54 0
-54 -105 0
-54 -116 0
-54 -165 0
-53 -105 0
-53 -116 0
-53 -165 0
-105 -116 0
-105 -165 0
-116 -165 0
-95 -109 0
-77 -109 0
-75 -109 0
-71 -109 0
-77 -95 0
-75 -95 0
-71 -95 0
-75 -77 0
-71 -77 0
-71 -75 0
-58 -154 0
-117 -154 0
-54 -154 0
-109 -154 0
-58 -117 0
-54 -58 0
-58 -109 0
-54 -117 0
-109 -117 0
-54 -109 0
-113 -230 0
-56 -230 0
-53 -230 0
-95 -230 0
-56 -113 0
-53 -113 0
-95 -113 0
-53 -56 0
-56 -95 0
-53 -95 0
-57 -232 0
-55 -232 0
-105 -232 0
-77 -232 0
-55 -57 0
-57 -105 0
-57 -77 0
-55 -105 0
-55 -77 0
-77 -105 0
-133 -146 0
-146 -189 0
-116 -146 0
-75 -146 0
-133 -189 0
-116 -133 0
-75 -133 0
-116 -189 0
-75 -189 0
-75 -116 0
-102 -124 0
-124 -195 0
-124 -165 0
-71 -124 0
-102 -195 0
-102 -165 0
-71 -102 0
-165 -195 0
-71 -195 0
-71 -165 0
-107 -126 0
-126 -162 0
-126 -198 0
-126 -137 0
-126 -176 0
-107 -162 0
-107 -198 0
-107 -137 0
-107 -176 0
-162 -198 0
-137 -162 0
-162 -176 0
-137 -198 0
-176 -198 0
-137 -176 0
-51 -52 0
-50 -52 0
-52 -112 0
-52 -156 0
-48 -52 0
-50 -51 0
-51 -112 0
-51 -156 0
-48 -51 0
-50 -112 0
-50 -156 0
-48 -50 0
-112 -156 0
-48 -112 0
-48 -156 0
-45 -46 0
-43 -46 0
-42 -46 0
-46 -151 0
-46 -99 0
-43 -45 0
-42 -45 0
-45 -151 0
-45 -99 0
-42 -43 0
-43 -151 0
-43 -99 0
-42 -151 0
-42 -99 0
-99 -151 0
-40 -41 0
-41 -221 0
-41 -222 0
-39 -41 0
-41 -223 0
-40 -221 0
-40 -222 0
-39 -40 0
-40 -223 0
-221 -222 0
-39 -221 0
-221 -223 0
-39 -222 0
-222 -223 0
-39 -223 0
-153 -231 0
-153 -233 0
-38 -153 0
-153 -192 0
-144 -153 0
-231 -233 0
-38 -231 0
-192 -231 0
-144 -231 0
-38 -233 0
-192 -233 0
-144 -233 0
-38 -192 0
-38 -144 0
-144 -192 0
-36 -37 0
-37 -74 0
-37 -70 0
-37 -69 0
-35 -37 0
-36 -74 0
-36 -70 0
-36 -69 0
-35 -36 0
-70 -74 0
-69 -74 0
-35 -74 0
-69 -70 0
-35 -70 0
-35 -69 0
-52 -126 0
-46 -126 0
-41 -126 0
-126 -153 0
-37 -126 0
-46 -52 0
-41 -52 0
-52 -153 0
-37 -52 0
-41 -46 0
-46 -153 0
-37 -46 0
-41 -153 0
-37 -41 0
-37 -153 0
-51 -107 0
-45 -107 0
-40 -107 0
-107 -231 0
-36 -107 0
-45 -51 0
-40 -51 0
-51 -231 0
-36 -51 0
-40 -45 0
-45 -231 0
-36 -45 0
-40 -231 0
-36 -40 0
-36 -231 0
-50 -162 0
-43 -162 0
-162 -221 0
-162 -233 0
-74 -162 0
-43 -50 0
-50 -221 0
-50 -233 0
-50 -74 0
-43 -221 0
-43 -233 0
-43 -74 0
-221 -233 0
-74 -221 0
-74 -233 0
-112 -198 0
-42 -198 0
-198 -222 0
-38 -198 0
-70 -198 0
-42 -112 0
-112 -222 0
-38 -112 0
-70 -112 0
-42 -222 0
-38 -42 0
-42 -70 0
-38 -222 0
-70 -222 0
-38 -70 0
-137 -156 0
-137 -151 0
-39 -137 0
-137 -192 0
-69 -137 0
-151 -156 0
-39 -156 0
-156 -192 0
-69 -156 0
-39 -151 0
-151 -192 0
-69 -151 0
-39 -192 0
-39 -69 0
-69 -192 0
-48 -176 0
-99 -176 0
-176 -223 0
-144 -176 0
-35 -176 0
-48 -99 0
-48 -223 0
-48 -144 0
-35 -48 0
-99 -223 0
-99 -144 0
-35 -99 0
-144 -223 0
-35 -223 0
-35 -144 0
-34 -180 0
-33 -34 0
-34 -121 0
-31 -34 0
-34 -66 0
-33 -180 0
-121 -180 0
-31 -180 0
-66 -180 0
-33 -121 0
-31 -33 0
-33 -66 0
-31 -121 0
-66 -121 0
-31 -66 0
-88 -106 0
-106 -131 0
-106 -139 0
-29 -106 0
-28 -106 0
-88 -131 0
-88 -139 0
-29 -88 0
-28 -88 0
-131 -139 0
-29 -131 0
-28 -131 0
-29 -139 0
-28 -139 0
-28 -29 0
-27 -171 0
-129 -171 0
-79 -171 0
-171 -182 0
-171 -201 0
-27 -129 0
-27 -79 0
-27 -182 0
-27 -201 0
-79 -129 0
-129 -182 0
-129 -201 0
-79 -182 0
-79 -201 0
-182 -201 0
-203 -209 0
-115 -203 0
-26 -203 0
-25 -203 0
-203 -220 0
-115 -209 0
-26 -209 0
-25 -209 0
-209 -220 0
-26 -115 0
-25 -115 0
-115 -220 0
-25 -26 0
-26 -220 0
-25 -220 0
-82 -119 0
-82 -227 0
-82 -111 0
-82 -98 0
-82 -161 0
-119 -227 0
-111 -119 0
-98 -119 0
-119 -161 0
-111 -227 0
-98 -227 0
-161 -227 0
-98 -111 0
-111 -161 0
-98 -161 0
-22 -23 0
-23 -76 0
-21 -23 0
-20 -23 0
-23 -49 0
-22 -76 0
-21 -22 0
-20 -22 0
-22 -49 0
-21 -76 0
-20 -76 0
-49 -76 0
-20 -21 0
-21 -49 0
-20 -49 0
-34 -106 0
-34 -171 0
-34 -203 0
-34 -82 0
-23 -34 0
-106 -171 0
-106 -203 0
-82 -106 0
-23 -106 0
-171 -203 0
-82 -171 0
-23 -171 0
-82 -203 0
-23 -203 0
-23 -82 0
-88 -180 0
-27 -180 0
-180 -209 0
-119 -180 0
-22 -180 0
-27 -88 0
-88 -209 0
-88 -119 0
-22 -88 0
-27 -209 0
-27 -119 0
-22 -27 0
-119 -209 0
-22 -209 0
-22 -119 0
-33 -131 0
-33 -129 0
-33 -115 0
-33 -227 0
-33 -76 0
-129 -131 0
-115 -131 0
-131 -227 0
-76 -131 0
-115 -129 0
-129 -227 0
-76 -129 0
-115 -227 0
-76 -115 0
-76 -227 0
-121 -139 0
-79 -121 0
-26 -121 0
-111 -121 0
-21 -121 0
-79 -139 0
-26 -139 0
-111 -139 0
-21 -139 0
-26 -79 0
-79 -111 0
-21 -79 0
-26 -111 0
-21 -26 0
-21 -111 0
-29 -31 0
-31 -182 0
-25 -31 0
-31 -98 0
-20 -31 0
-29 -182 0
-25 -29 0
-29 -98 0
-20 -29 0
-25 -182 0
-98 -182 0
-20 -182 0
-25 -98 0
-20 -25 0
-20 -98 0
-28 -66 0
-66 -201 0
-66 -220 0
-66 -161 0
-49 -66 0
-28 -201 0
-28 -220 0
-28 -161 0
-28 -49 0
-201 -220 0
-161 -201 0
-49 -201 0
-161 -220 0
-49 -220 0
-49 -161 0
-128 -183 0
-86 -128 0
-19 -128 0
-128 -206 0
-128 -212 0
-86 -183 0
-19 -183 0
-183 -206 0
-183 -212 0
-19 -86 0
-86 -206 0
-86 -212 0
-19 -206 0
-19 -212 0
-206 -212 0
-17 -18 0
-18 -108 0
-18 -89 0
-18 -132 0
-18 -141 0
-17 -108 0
-17 -89 0
-17 -132 0
-17 -141 0
-89 -108 0
-108 -132 0
-108 -141 0
-89 -132 0
-89 -141 0
-132 -141 0
-216 -238 0
-59 -216 0
-16 -216 0
-174 -216 0
-81 -216 0
-59 -238 0
-16 -238 0
-174 -238 0
-81 -238 0
-16 -59 0
-59 -174 0
-59 -81 0
-16 -174 0
-16 -81 0
-81 -174 0
-90 -149 0
-90 -205 0
-90 -211 0
-15 -90 0
-90 -157 0
-149 -205 0
-149 -211 0
-15 -149 0
-149 -157 0
-205 -211 0
-15 -205 0
-157 -205 0
-15 -211 0
-157 -211 0
-15 -157 0
-135 -225 0
-150 -225 0
-187 -225 0
-14 -225 0
-13 -225 0
-135 -150 0
-135 -187 0
-14 -135 0
-13 -135 0
-150 -187 0
-14 -150 0
-13 -150 0
-14 -187 0
-13 -187 0
-13 -14 0
-235 -237 0
-32 -235 0
-122 -235 0
-30 -235 0
-12 -235 0
-32 -237 0
-122 -237 0
-30 -237 0
-12 -237 0
-32 -122 0
-30 -32 0
-12 -32 0
-30 -122 0
-12 -122 0
-12 -30 0
-18 -128 0
-128 -216 0
-90 -128 0
-128 -225 0
-128 -235 0
-18 -216 0
-18 -90 0
-18 -225 0
-18 -235 0
-90 -216 0
-216 -225 0
-216 -235 0
-90 -225 0
-90 -235 0
-225 -235 0
-17 -183 0
-183 -238 0
-149 -183 0
-135 -183 0
-183 -237 0
-17 -238 0
-17 -149 0
-17 -135 0
-17 -237 0
-149 -238 0
-135 -238 0
-237 -238 0
-135 -149 0
-149 -237 0
-135 -237 0
-86 -108 0
-59 -86 0
-86 -205 0
-86 -150 0
-32 -86 0
-59 -108 0
-108 -205 0
-108 -150 0
-32 -108 0
-59 -205 0
-59 -150 0
-32 -59 0
-150 -205 0
-32 -205 0
-32 -150 0
-19 -89 0
-16 -19 0
-19 -211 0
-19 -187 0
-19 -122 0
-16 -89 0
-89 -211 0
-89 -187 0
-89 -122 0
-16 -211 0
-16 -187 0
-16 -122 0
-187 -211 0
-122 -211 0
-122 -187 0
-132 -206 0
-174 -206 0
-15 -206 0
-14 -206 0
-30 -206 0
-132 -174 0
-15 -132 0
-14 -132 0
-30 -132 0
-15 -174 0
-14 -174 0
-30 -174 0
-14 -15 0
-15 -30 0
-14 -30 0
-141 -212 0
-81 -212 0
-157 -212 0
-13 -212 0
-12 -212 0
-81 -141 0
-141 -157 0
-13 -141 0
-12 -141 0
-81 -157 0
-13 -81 0
-12 -81 0
-13 -157 0
-12 -157 0
-12 -13 0
-11 -101 0
-101 -194 0
-101 -160 0
-101 -136 0
-11 -194 0
-11 -160 0
-11 -136 0
-160 -194 0
-136 -194 0
-136 -160 0
-85 -123 0
-85 -164 0
-10 -85 0
-84 -85 0
-123 -164 0
-10 -123 0
-84 -123 0
-10 -164 0
-84 -164 0
-10 -84 0
-9 -103 0
-9 -186 0
-9 -191 0
-9 -197 0
-103 -186 0
-103 -191 0
-103 -197 0
-186 -191 0
-186 -197 0
-191 -197 0
-155 -172 0
-127 -172 0
-172 -184 0
-8 -172 0
-127 -155 0
-155 -184 0
-8 -155 0
-127 -184 0
-8 -127 0
-8 -184 0
-207 -214 0
-159 -207 0
-63 -207 0
-61 -207 0
-159 -214 0
-63 -214 0
-61 -214 0
-63 -159 0
-61 -159 0
-61 -63 0
-85 -101 0
-9 -101 0
-101 -172 0
-101 -207 0
-9 -85 0
-85 -172 0
-85 -207 0
-9 -172 0
-9 -207 0
-172 -207 0
-11 -123 0
-11 -103 0
-11 -155 0
-11 -214 0
-103 -123 0
-123 -155 0
-123 -214 0
-103 -155 0
-103 -214 0
-155 -214 0
-164 -194 0
-186 -194 0
-127 -194 0
-159 -194 0
-164 -186 0
-127 -164 0
-159 -164 0
-127 -186 0
-159 -186 0
-127 -159 0
-10 -160 0
-160 -191 0
-160 -184 0
-63 -160 0
-10 -191 0
-10 -184 0
-10 -63 0
-184 -191 0
-63 -191 0
-63 -184 0
-84 -136 0
-136 -197 0
-8 -136 0
-61 -136 0
-84 -197 0
-8 -84 0
-61 -84 0
-8 -197 0
-61 -197 0
-8 -61 0
-7 -169 0
-6 -7 0
-7 -175 0
-6 -169 0
-169 -175 0
-6 -175 0
-44 -152 0
-44 -100 0
-44 -178 0
-100 -152 0
-152 -178 0
-100 -178 0
-193 -229 0
-145 -229 0
-125 -229 0
-145 -193 0
-125 -193 0
-125 -145 0
-5 -217 0
-78 -217 0
-4 -217 0
-5 -78 0
-4 -5 0
-4 -78 0
-7 -44 0
-7 -229 0
-7 -217 0
-44 -229 0
-44 -217 0
-217 -229 0
-152 -169 0
-169 -193 0
-5 -169 0
-152 -193 0
-5 -152 0
-5 -193 0
-6 -100 0
-6 -145 0
-6 -78 0
-100 -145 0
-78 -100 0
-78 -145 0
-175 -178 0
-125 -175 0
-4 -175 0
-125 -178 0
-4 -178 0
-4 -125 0
-130 -181 0
-130 -200 0
-130 -202 0
-130 -208 0
-181 -200 0
-181 -202 0
-181 -208 0
-200 -202 0
-200 -208 0
-202 -208 0
-24 -114 0
-114 -219 0
-94 -114 0
-3 -114 0
-24 -219 0
-24 -94 0
-3 -24 0
-94 -219 0
-3 -219 0
-3 -94 0
-167 -173 0
-143 -167 0
-83 -167 0
-118 -167 0
-143 -173 0
-83 -173 0
-118 -173 0
-83 -143 0
-118 -143 0
-83 -118 0
-97 -226 0
-163 -226 0
-199 -226 0
-138 -226 0
-97 -163 0
-97 -199 0
-97 -138 0
-163 -199 0
-138 -163 0
-138 -199 0
-47 -228 0
-2 -47 0
-1 -47 0
-47 -168 0
-2 -228 0
-1 -228 0
-168 -228 0
-1 -2 0
-2 -168 0
-1 -168 0
-114 -130 0
-130 -167 0
-130 -226 0
-47 -130 0
-114 -167 0
-114 -226 0
-47 -114 0
-167 -226 0
-47 -167 0
-47 -226 0
-24 -181 0
-173 -181 0
-97 -181 0
-181 -228 0
-24 -173 0
-24 -97 0
-24 -228 0
-97 -173 0
-173 -228 0
-97 -228 0
-200 -219 0
-143 -200 0
-163 -200 0
-2 -200 0
-143 -219 0
-163 -219 0
-2 -219 0
-143 -163 0
-2 -143 0
-2 -163 0
-94 -202 0
-83 -202 0
-199 -202 0
-1 -202 0
-83 -94 0
-94 -199 0
-1 -94 0
-83 -199 0
-1 -83 0
-1 -199 0
-3 -208 0
-118 -208 0
-138 -208 0
-168 -208 0
-3 -118 0
-3 -138 0
-3 -168 0
-118 -138 0
-118 -168 0
-138 -168 0
